p tw 121 18151 2 
1 3 
1 4 
1 5 
1 6 
1 7 
1 8 
1 9 
1 10 
1 11 
1 12 
1 19 
1 23 
1 29 
1 34 
1 42 
1 45 
1 49 
1 56 
1 65 
1 67 
1 72 
1 78 
1 79 
1 89 
1 92 
1 100 
1 102 
1 111 
1 121 
2 3 
2 4 
2 5 
2 6 
2 7 
2 8 
2 9 
2 10 
2 11 
2 13 
2 20 
2 23 
2 24 
2 35 
2 44 
2 46 
2 50 
2 57 
2 58 
2 68 
2 70 
2 79 
2 85 
2 90 
2 93 
2 101 
2 109 
2 112 
2 117 
3 4 
3 5 
3 6 
3 7 
3 8 
3 9 
3 10 
3 11 
3 14 
3 15 
3 24 
3 25 
3 36 
3 43 
3 47 
3 53 
3 58 
3 66 
3 69 
3 73 
3 80 
3 83 
3 91 
3 96 
3 102 
3 104 
3 111 
3 113 
4 5 
4 6 
4 7 
4 8 
4 9 
4 10 
4 11 
4 15 
4 17 
4 25 
4 26 
4 37 
4 40 
4 48 
4 52 
4 59 
4 64 
4 70 
4 76 
4 81 
4 82 
4 89 
4 92 
4 103 
4 110 
4 112 
4 114 
5 6 
5 7 
5 8 
5 9 
5 10 
5 11 
5 16 
5 18 
5 27 
5 33 
5 37 
5 38 
5 47 
5 49 
5 57 
5 60 
5 71 
5 74 
5 78 
5 82 
5 93 
5 98 
5 104 
5 108 
5 115 
5 116 
6 7 
6 8 
6 9 
6 10 
6 11 
6 13 
6 17 
6 28 
6 32 
6 36 
6 39 
6 45 
6 50 
6 60 
6 61 
6 72 
6 75 
6 83 
6 84 
6 94 
6 99 
6 103 
6 105 
6 116 
6 118 
7 8 
7 9 
7 10 
7 11 
7 16 
7 18 
7 29 
7 31 
7 40 
7 41 
7 51 
7 54 
7 61 
7 62 
7 67 
7 73 
7 84 
7 88 
7 91 
7 95 
7 101 
7 106 
7 114 
7 117 
8 9 
8 10 
8 11 
8 19 
8 21 
8 27 
8 30 
8 34 
8 41 
8 46 
8 52 
8 59 
8 63 
8 74 
8 77 
8 85 
8 86 
8 95 
8 96 
8 105 
8 107 
8 113 
8 118 
9 10 
9 11 
9 14 
9 20 
9 30 
9 31 
9 35 
9 42 
9 53 
9 55 
9 62 
9 64 
9 71 
9 75 
9 81 
9 86 
9 94 
9 97 
9 100 
9 108 
9 119 
9 120 
10 11 
10 21 
10 22 
10 26 
10 32 
10 39 
10 43 
10 51 
10 54 
10 56 
10 65 
10 68 
10 76 
10 80 
10 87 
10 97 
10 98 
10 107 
10 109 
10 115 
10 120 
11 12 
11 22 
11 28 
11 33 
11 38 
11 44 
11 48 
11 55 
11 63 
11 66 
11 69 
11 77 
11 87 
11 88 
11 90 
11 99 
11 106 
11 110 
11 119 
11 121 
12 13 
12 14 
12 15 
12 16 
12 17 
12 18 
12 19 
12 20 
12 21 
12 22 
12 23 
12 28 
12 34 
12 38 
12 45 
12 48 
12 56 
12 63 
12 67 
12 69 
12 78 
12 87 
12 89 
12 90 
12 100 
12 106 
12 111 
12 119 
13 14 
13 15 
13 16 
13 17 
13 18 
13 19 
13 20 
13 21 
13 22 
13 24 
13 32 
13 35 
13 36 
13 45 
13 46 
13 57 
13 60 
13 68 
13 75 
13 79 
13 84 
13 90 
13 99 
13 101 
13 103 
13 112 
13 118 
14 15 
14 16 
14 17 
14 18 
14 19 
14 20 
14 21 
14 22 
14 25 
14 30 
14 35 
14 36 
14 47 
14 55 
14 58 
14 62 
14 69 
14 71 
14 80 
14 81 
14 91 
14 94 
14 100 
14 102 
14 113 
14 120 
15 16 
15 17 
15 18 
15 19 
15 20 
15 21 
15 22 
15 24 
15 26 
15 37 
15 43 
15 48 
15 53 
15 59 
15 66 
15 70 
15 73 
15 81 
15 83 
15 92 
15 96 
15 103 
15 104 
15 111 
15 114 
16 17 
16 18 
16 19 
16 20 
16 21 
16 22 
16 27 
16 31 
16 38 
16 41 
16 49 
16 54 
16 60 
16 61 
16 67 
16 71 
16 82 
16 88 
16 91 
16 93 
16 101 
16 104 
16 114 
16 115 
17 18 
17 19 
17 20 
17 21 
17 22 
17 25 
17 28 
17 39 
17 40 
17 50 
17 52 
17 61 
17 64 
17 72 
17 76 
17 82 
17 83 
17 89 
17 94 
17 105 
17 110 
17 112 
17 116 
18 19 
18 20 
18 21 
18 22 
18 29 
18 33 
18 37 
18 40 
18 47 
18 51 
18 57 
18 62 
18 73 
18 74 
18 78 
18 84 
18 95 
18 98 
18 106 
18 108 
18 116 
18 117 
19 20 
19 21 
19 22 
19 29 
19 30 
19 41 
19 42 
19 49 
19 52 
19 63 
19 65 
19 72 
19 74 
19 79 
19 85 
19 92 
19 96 
19 102 
19 107 
19 118 
19 121 
20 21 
20 22 
20 23 
20 31 
20 42 
20 44 
20 50 
20 53 
20 58 
20 64 
20 70 
20 75 
20 85 
20 86 
20 93 
20 97 
20 108 
20 109 
20 117 
20 119 
21 22 
21 27 
21 32 
21 34 
21 43 
21 46 
21 54 
21 59 
21 65 
21 76 
21 77 
21 86 
21 87 
21 95 
21 98 
21 105 
21 109 
21 113 
21 120 
22 26 
22 33 
22 39 
22 44 
22 51 
22 55 
22 56 
22 66 
22 68 
22 77 
22 80 
22 88 
22 97 
22 99 
22 107 
22 110 
22 115 
22 121 
23 24 
23 25 
23 26 
23 27 
23 28 
23 29 
23 30 
23 31 
23 32 
23 33 
23 34 
23 44 
23 45 
23 50 
23 56 
23 58 
23 67 
23 70 
23 78 
23 85 
23 89 
23 93 
23 100 
23 109 
23 111 
23 117 
24 25 
24 26 
24 27 
24 28 
24 29 
24 30 
24 31 
24 32 
24 33 
24 35 
24 43 
24 46 
24 53 
24 57 
24 66 
24 68 
24 73 
24 79 
24 83 
24 90 
24 96 
24 101 
24 104 
24 111 
24 112 
25 26 
25 27 
25 28 
25 29 
25 30 
25 31 
25 32 
25 33 
25 36 
25 40 
25 47 
25 52 
25 58 
25 64 
25 69 
25 76 
25 80 
25 82 
25 89 
25 91 
25 102 
25 110 
25 112 
25 113 
26 27 
26 28 
26 29 
26 30 
26 31 
26 32 
26 33 
26 37 
26 39 
26 48 
26 51 
26 56 
26 59 
26 68 
26 70 
26 80 
26 81 
26 92 
26 97 
26 103 
26 107 
26 114 
26 115 
27 28 
27 29 
27 30 
27 31 
27 32 
27 33 
27 34 
27 38 
27 46 
27 49 
27 59 
27 60 
27 71 
27 77 
27 82 
27 86 
27 93 
27 95 
27 104 
27 105 
27 113 
27 115 
28 29 
28 30 
28 31 
28 32 
28 33 
28 38 
28 39 
28 48 
28 50 
28 61 
28 63 
28 69 
28 72 
28 83 
28 87 
28 90 
28 94 
28 105 
28 106 
28 116 
28 119 
29 30 
29 31 
29 32 
29 33 
29 40 
29 42 
29 49 
29 51 
29 62 
29 65 
29 72 
29 73 
29 79 
29 84 
29 92 
29 95 
29 102 
29 106 
29 117 
29 121 
30 31 
30 32 
30 33 
30 35 
30 41 
30 52 
30 55 
30 62 
30 63 
30 71 
30 74 
30 81 
30 85 
30 94 
30 96 
30 100 
30 107 
30 118 
30 120 
31 32 
31 33 
31 41 
31 42 
31 53 
31 54 
31 61 
31 64 
31 67 
31 75 
31 86 
31 88 
31 91 
31 97 
31 101 
31 108 
31 114 
31 119 
32 33 
32 36 
32 43 
32 45 
32 54 
32 60 
32 65 
32 75 
32 76 
32 84 
32 87 
32 98 
32 99 
32 103 
32 109 
32 118 
32 120 
33 37 
33 44 
33 47 
33 55 
33 57 
33 66 
33 74 
33 77 
33 78 
33 88 
33 98 
33 99 
33 108 
33 110 
33 116 
33 121 
34 35 
34 36 
34 37 
34 38 
34 39 
34 40 
34 41 
34 42 
34 43 
34 44 
34 45 
34 46 
34 56 
34 59 
34 67 
34 77 
34 78 
34 86 
34 89 
34 95 
34 100 
34 105 
34 111 
34 113 
35 36 
35 37 
35 38 
35 39 
35 40 
35 41 
35 42 
35 43 
35 44 
35 46 
35 55 
35 57 
35 62 
35 68 
35 71 
35 79 
35 81 
35 90 
35 94 
35 100 
35 101 
35 112 
35 120 
36 37 
36 38 
36 39 
36 40 
36 41 
36 42 
36 43 
36 44 
36 45 
36 47 
36 58 
36 60 
36 69 
36 75 
36 80 
36 84 
36 91 
36 99 
36 102 
36 103 
36 113 
36 118 
37 38 
37 39 
37 40 
37 41 
37 42 
37 43 
37 44 
37 47 
37 48 
37 57 
37 59 
37 70 
37 74 
37 78 
37 81 
37 92 
37 98 
37 103 
37 108 
37 114 
37 116 
38 39 
38 40 
38 41 
38 42 
38 43 
38 44 
38 48 
38 49 
38 60 
38 63 
38 69 
38 71 
38 82 
38 87 
38 90 
38 93 
38 104 
38 106 
38 115 
38 119 
39 40 
39 41 
39 42 
39 43 
39 44 
39 50 
39 51 
39 56 
39 61 
39 68 
39 72 
39 80 
39 83 
39 94 
39 97 
39 105 
39 107 
39 115 
39 116 
40 41 
40 42 
40 43 
40 44 
40 51 
40 52 
40 62 
40 64 
40 73 
40 76 
40 82 
40 84 
40 89 
40 95 
40 106 
40 110 
40 112 
40 117 
41 42 
41 43 
41 44 
41 52 
41 54 
41 61 
41 63 
41 67 
41 74 
41 85 
41 88 
41 91 
41 96 
41 101 
41 107 
41 114 
41 118 
42 43 
42 44 
42 49 
42 53 
42 64 
42 65 
42 72 
42 75 
42 79 
42 86 
42 92 
42 97 
42 102 
42 108 
42 119 
42 121 
43 44 
43 53 
43 54 
43 65 
43 66 
43 73 
43 76 
43 83 
43 87 
43 96 
43 98 
43 104 
43 109 
43 111 
43 120 
44 50 
44 55 
44 58 
44 66 
44 70 
44 77 
44 85 
44 88 
44 93 
44 99 
44 109 
44 110 
44 117 
44 121 
45 46 
45 47 
45 48 
45 49 
45 50 
45 51 
45 52 
45 53 
45 54 
45 55 
45 56 
45 60 
45 67 
45 75 
45 78 
45 84 
45 89 
45 99 
45 100 
45 103 
45 111 
45 118 
46 47 
46 48 
46 49 
46 50 
46 51 
46 52 
46 53 
46 54 
46 55 
46 57 
46 59 
46 68 
46 77 
46 79 
46 86 
46 90 
46 95 
46 101 
46 105 
46 112 
46 113 
47 48 
47 49 
47 50 
47 51 
47 52 
47 53 
47 54 
47 55 
47 57 
47 58 
47 69 
47 74 
47 78 
47 80 
47 91 
47 98 
47 102 
47 108 
47 113 
47 116 
48 49 
48 50 
48 51 
48 52 
48 53 
48 54 
48 55 
48 59 
48 63 
48 69 
48 70 
48 81 
48 87 
48 90 
48 92 
48 103 
48 106 
48 114 
48 119 
49 50 
49 51 
49 52 
49 53 
49 54 
49 55 
49 60 
49 65 
49 71 
49 72 
49 79 
49 82 
49 92 
49 93 
49 102 
49 104 
49 115 
49 121 
50 51 
50 52 
50 53 
50 54 
50 55 
50 58 
50 61 
50 70 
50 72 
50 83 
50 85 
50 93 
50 94 
50 105 
50 109 
50 116 
50 117 
51 52 
51 53 
51 54 
51 55 
51 56 
51 62 
51 68 
51 73 
51 80 
51 84 
51 95 
51 97 
51 106 
51 107 
51 115 
51 117 
52 53 
52 54 
52 55 
52 63 
52 64 
52 74 
52 76 
52 82 
52 85 
52 89 
52 96 
52 107 
52 110 
52 112 
52 118 
53 54 
53 55 
53 64 
53 66 
53 73 
53 75 
53 83 
53 86 
53 96 
53 97 
53 104 
53 108 
53 111 
53 119 
54 55 
54 61 
54 65 
54 67 
54 76 
54 87 
54 88 
54 91 
54 98 
54 101 
54 109 
54 114 
54 120 
55 62 
55 66 
55 71 
55 77 
55 81 
55 88 
55 94 
55 99 
55 100 
55 110 
55 120 
55 121 
56 57 
56 58 
56 59 
56 60 
56 61 
56 62 
56 63 
56 64 
56 65 
56 66 
56 67 
56 68 
56 78 
56 80 
56 89 
56 97 
56 100 
56 107 
56 111 
56 115 
57 58 
57 59 
57 60 
57 61 
57 62 
57 63 
57 64 
57 65 
57 66 
57 68 
57 74 
57 78 
57 79 
57 90 
57 98 
57 101 
57 108 
57 112 
57 116 
58 59 
58 60 
58 61 
58 62 
58 63 
58 64 
58 65 
58 66 
58 69 
58 70 
58 80 
58 85 
58 91 
58 93 
58 102 
58 109 
58 113 
58 117 
59 60 
59 61 
59 62 
59 63 
59 64 
59 65 
59 66 
59 70 
59 77 
59 81 
59 86 
59 92 
59 95 
59 103 
59 105 
59 113 
59 114 
60 61 
60 62 
60 63 
60 64 
60 65 
60 66 
60 71 
60 75 
60 82 
60 84 
60 93 
60 99 
60 103 
60 104 
60 115 
60 118 
61 62 
61 63 
61 64 
61 65 
61 66 
61 67 
61 72 
61 83 
61 88 
61 91 
61 94 
61 101 
61 105 
61 114 
61 116 
62 63 
62 64 
62 65 
62 66 
62 71 
62 73 
62 81 
62 84 
62 94 
62 95 
62 100 
62 106 
62 117 
62 120 
63 64 
63 65 
63 66 
63 69 
63 74 
63 85 
63 87 
63 90 
63 96 
63 106 
63 107 
63 118 
63 119 
64 65 
64 66 
64 75 
64 76 
64 82 
64 86 
64 89 
64 97 
64 108 
64 110 
64 112 
64 119 
65 66 
65 72 
65 76 
65 79 
65 87 
65 92 
65 98 
65 102 
65 109 
65 120 
65 121 
66 73 
66 77 
66 83 
66 88 
66 96 
66 99 
66 104 
66 110 
66 111 
66 121 
67 68 
67 69 
67 70 
67 71 
67 72 
67 73 
67 74 
67 75 
67 76 
67 77 
67 78 
67 88 
67 89 
67 91 
67 100 
67 101 
67 111 
67 114 
68 69 
68 70 
68 71 
68 72 
68 73 
68 74 
68 75 
68 76 
68 77 
68 79 
68 80 
68 90 
68 97 
68 101 
68 107 
68 112 
68 115 
69 70 
69 71 
69 72 
69 73 
69 74 
69 75 
69 76 
69 77 
69 80 
69 87 
69 90 
69 91 
69 102 
69 106 
69 113 
69 119 
70 71 
70 72 
70 73 
70 74 
70 75 
70 76 
70 77 
70 81 
70 85 
70 92 
70 93 
70 103 
70 109 
70 114 
70 117 
71 72 
71 73 
71 74 
71 75 
71 76 
71 77 
71 81 
71 82 
71 93 
71 94 
71 100 
71 104 
71 115 
71 120 
72 73 
72 74 
72 75 
72 76 
72 77 
72 79 
72 83 
72 92 
72 94 
72 102 
72 105 
72 116 
72 121 
73 74 
73 75 
73 76 
73 77 
73 83 
73 84 
73 95 
73 96 
73 104 
73 106 
73 111 
73 117 
74 75 
74 76 
74 77 
74 78 
74 85 
74 96 
74 98 
74 107 
74 108 
74 116 
74 118 
75 76 
75 77 
75 84 
75 86 
75 97 
75 99 
75 103 
75 108 
75 118 
75 119 
76 77 
76 82 
76 87 
76 89 
76 98 
76 109 
76 110 
76 112 
76 120 
77 86 
77 88 
77 95 
77 99 
77 105 
77 110 
77 113 
77 121 
78 79 
78 80 
78 81 
78 82 
78 83 
78 84 
78 85 
78 86 
78 87 
78 88 
78 89 
78 98 
78 100 
78 108 
78 111 
78 116 
79 80 
79 81 
79 82 
79 83 
79 84 
79 85 
79 86 
79 87 
79 88 
79 90 
79 92 
79 101 
79 102 
79 112 
79 121 
80 81 
80 82 
80 83 
80 84 
80 85 
80 86 
80 87 
80 88 
80 91 
80 97 
80 102 
80 107 
80 113 
80 115 
81 82 
81 83 
81 84 
81 85 
81 86 
81 87 
81 88 
81 92 
81 94 
81 100 
81 103 
81 114 
81 120 
82 83 
82 84 
82 85 
82 86 
82 87 
82 88 
82 89 
82 93 
82 104 
82 110 
82 112 
82 115 
83 84 
83 85 
83 86 
83 87 
83 88 
83 94 
83 96 
83 104 
83 105 
83 111 
83 116 
84 85 
84 86 
84 87 
84 88 
84 95 
84 99 
84 103 
84 106 
84 117 
84 118 
85 86 
85 87 
85 88 
85 93 
85 96 
85 107 
85 109 
85 117 
85 118 
86 87 
86 88 
86 95 
86 97 
86 105 
86 108 
86 113 
86 119 
87 88 
87 90 
87 98 
87 106 
87 109 
87 119 
87 120 
88 91 
88 99 
88 101 
88 110 
88 114 
88 121 
89 90 
89 91 
89 92 
89 93 
89 94 
89 95 
89 96 
89 97 
89 98 
89 99 
89 100 
89 110 
89 111 
89 112 
90 91 
90 92 
90 93 
90 94 
90 95 
90 96 
90 97 
90 98 
90 99 
90 101 
90 106 
90 112 
90 119 
91 92 
91 93 
91 94 
91 95 
91 96 
91 97 
91 98 
91 99 
91 101 
91 102 
91 113 
91 114 
92 93 
92 94 
92 95 
92 96 
92 97 
92 98 
92 99 
92 102 
92 103 
92 114 
92 121 
93 94 
93 95 
93 96 
93 97 
93 98 
93 99 
93 104 
93 109 
93 115 
93 117 
94 95 
94 96 
94 97 
94 98 
94 99 
94 100 
94 105 
94 116 
94 120 
95 96 
95 97 
95 98 
95 99 
95 105 
95 106 
95 113 
95 117 
96 97 
96 98 
96 99 
96 104 
96 107 
96 111 
96 118 
97 98 
97 99 
97 107 
97 108 
97 115 
97 119 
98 99 
98 108 
98 109 
98 116 
98 120 
99 103 
99 110 
99 118 
99 121 
100 101 
100 102 
100 103 
100 104 
100 105 
100 106 
100 107 
100 108 
100 109 
100 110 
100 111 
100 120 
101 102 
101 103 
101 104 
101 105 
101 106 
101 107 
101 108 
101 109 
101 110 
101 112 
101 114 
102 103 
102 104 
102 105 
102 106 
102 107 
102 108 
102 109 
102 110 
102 113 
102 121 
103 104 
103 105 
103 106 
103 107 
103 108 
103 109 
103 110 
103 114 
103 118 
104 105 
104 106 
104 107 
104 108 
104 109 
104 110 
104 111 
104 115 
105 106 
105 107 
105 108 
105 109 
105 110 
105 113 
105 116 
106 107 
106 108 
106 109 
106 110 
106 117 
106 119 
107 108 
107 109 
107 110 
107 115 
107 118 
108 109 
108 110 
108 116 
108 119 
109 110 
109 117 
109 120 
110 112 
110 121 
111 112 
111 113 
111 114 
111 115 
111 116 
111 117 
111 118 
111 119 
111 120 
111 121 
112 113 
112 114 
112 115 
112 116 
112 117 
112 118 
112 119 
112 120 
112 121 
113 114 
113 115 
113 116 
113 117 
113 118 
113 119 
113 120 
113 121 
114 115 
114 116 
114 117 
114 118 
114 119 
114 120 
114 121 
115 116 
115 117 
115 118 
115 119 
115 120 
115 121 
116 117 
116 118 
116 119 
116 120 
116 121 
117 118 
117 119 
117 120 
117 121 
118 119 
118 120 
118 121 
119 120 
119 121 
120 121 
